Minimize
  - 18 y_0 - 15 y_1 - 43 y_2 - 55 y_3 - 60 y_4 - 11 y_5 - 12 y_6 - 57 y_7
   - 22 y_8 - 41 y_9 - 39 y_10 - 54 y_11 - 33 y_12 - 9 y_13 - 46 y_14
   - 28 y_15 - 28 y_16 - 57 y_17 - 52 y_18 - 33 y_19 - 33 y_20 - 49 y_21
   - 34 y_22 - 51 y_23 - 26 y_24 - 45 y_25 - 51 y_26 - 38 y_27 - 32 y_28
   - 34 y_29 - 38 y_30 - 28 y_31 - 50 y_32 - 26 y_33 - 55 y_34 - 47 y_35
   - 32 y_36 - 27 y_37 - 38 y_38 - 13 y_39 - 34 y_40 - 25 y_41 - 51 y_42
   - 41 y_43 - 9 y_44 - 37 y_45 - 63 y_46 - 62 y_47 - 24 y_48 - 43 y_49
   - 47 y_50 - 42 y_51 - 51 y_52 - 41 y_53 - 58 y_54 - 38 y_55 - 46 y_56
   - 24 y_57 - 56 y_58 - 42 y_59 - 52 y_60 - 22 y_61 - 47 y_63 - 30 y_64
   - 17 y_65 - 47 y_66 - 38 y_67 - 39 y_68 - 57 y_69 - 14 y_70 - 28 y_71
   - 42 y_72 - 42 y_73 - 13 y_74 - 20 y_75 - 32 y_76 - 33 y_77 - 51 y_78
   - 51 y_79 - 42 y_80 - y_81 - 20 y_82 - 49 y_83 - 41 y_84 - 22 y_85
   - 5 y_86 - 11 y_87 - 48 y_88 - 58 y_89 - 67 y_90 - 40 y_91 - 43 y_92
   - 53 y_93 - 62 y_94 - 56 y_95 - 52 y_96 - 31 y_97 - 8 y_98 - 40 y_99
   + 3718 Constant
Subject To
 c_0: y_20 = 1
 c_1_0: y_0 + y_75 >= 1
 c_1_1: y_1 + y_5 + y_39 + y_65 + y_70 >= 1
 c_1_2: y_2 + y_59 >= 1
 c_1_3: y_3 + y_54 >= 1
 c_1_4: y_4 + y_94 >= 1
 c_1_5: y_1 + y_5 + y_13 + y_39 + y_70 >= 1
 c_1_6: y_6 + y_44 >= 1
 c_1_7: y_7 >= 1
 c_1_8: y_8 >= 1
 c_1_9: y_9 + y_51 >= 1
 c_1_10: y_10 + y_68 >= 1
 c_1_11: y_11 >= 1
 c_1_12: y_12 + y_71 >= 1
 c_1_13: y_5 + y_13 + y_39 >= 1
 c_1_14: y_14 + y_51 >= 1
 c_1_15: y_15 + y_16 >= 1
 c_1_16: y_15 + y_16 >= 1
 c_1_17: y_17 >= 1
 c_1_18: y_18 + y_93 >= 1
 c_1_19: y_19 + y_45 + y_77 >= 1
 c_1_20: y_20 >= 1
 c_1_21: y_21 >= 1
 c_1_22: y_22 >= 1
 c_1_23: y_23 >= 1
 c_1_24: y_24 >= 1
 c_1_25: y_25 >= 1
 c_1_26: y_26 + y_96 >= 1
 c_1_27: y_27 + y_38 + y_43 >= 1
 c_1_28: y_28 + y_31 >= 1
 c_1_29: y_29 + y_97 >= 1
 c_1_30: y_30 >= 1
 c_1_31: y_28 + y_31 >= 1
 c_1_32: y_32 >= 1
 c_1_33: y_33 + y_48 + y_71 >= 1
 c_1_34: y_34 + y_42 >= 1
 c_1_35: y_35 + y_78 >= 1
 c_1_36: y_36 + y_40 >= 1
 c_1_37: y_37 + y_85 >= 1
 c_1_38: y_27 + y_38 + y_43 >= 1
 c_1_39: y_1 + y_5 + y_13 + y_39 + y_70 >= 1
 c_1_40: y_36 + y_40 >= 1
 c_1_41: y_41 >= 1
 c_1_42: y_34 + y_42 >= 1
 c_1_43: y_27 + y_38 + y_43 >= 1
 c_1_44: y_6 + y_44 + y_74 + y_98 >= 1
 c_1_45: y_19 + y_45 + y_77 >= 1
 c_1_46: y_46 >= 1
 c_1_47: y_47 + y_54 >= 1
 c_1_48: y_33 + y_48 >= 1
 c_1_49: y_49 + y_56 >= 1
 c_1_50: y_50 >= 1
 c_1_51: y_9 + y_14 + y_51 >= 1
 c_1_52: y_52 + y_58 >= 1
 c_1_53: y_53 >= 1
 c_1_54: y_3 + y_47 + y_54 >= 1
 c_1_55: y_55 >= 1
 c_1_56: y_49 + y_56 >= 1
 c_1_57: y_57 >= 1
 c_1_58: y_52 + y_58 + y_69 >= 1
 c_1_59: y_2 + y_59 >= 1
 c_1_60: y_60 + y_93 >= 1
 c_1_61: y_61 >= 1
 c_1_62: y_62 + y_81 + y_86 >= 1
 c_1_63: y_63 >= 1
 c_1_64: y_64 >= 1
 c_1_65: y_1 + y_65 + y_70 >= 1
 c_1_66: y_66 + y_83 >= 1
 c_1_67: y_67 >= 1
 c_1_68: y_10 + y_68 >= 1
 c_1_69: y_58 + y_69 >= 1
 c_1_70: y_1 + y_5 + y_39 + y_65 + y_70 >= 1
 c_1_71: y_12 + y_33 + y_71 >= 1
 c_1_72: y_72 + y_84 + y_91 + y_92 >= 1
 c_1_73: y_73 >= 1
 c_1_74: y_44 + y_74 + y_98 >= 1
 c_1_75: y_0 + y_75 >= 1
 c_1_76: y_76 >= 1
 c_1_77: y_19 + y_45 + y_77 >= 1
 c_1_78: y_35 + y_78 >= 1
 c_1_79: y_79 >= 1
 c_1_80: y_80 >= 1
 c_1_81: y_62 + y_81 + y_86 >= 1
 c_1_82: y_82 >= 1
 c_1_83: y_66 + y_83 >= 1
 c_1_84: y_72 + y_84 + y_91 + y_92 >= 1
 c_1_85: y_37 + y_85 >= 1
 c_1_86: y_62 + y_81 + y_86 >= 1
 c_1_87: y_87 >= 1
 c_1_88: y_88 >= 1
 c_1_89: y_89 >= 1
 c_1_90: y_90 >= 1
 c_1_91: y_72 + y_84 + y_91 + y_92 >= 1
 c_1_92: y_72 + y_84 + y_91 + y_92 >= 1
 c_1_93: y_18 + y_60 + y_93 >= 1
 c_1_94: y_4 + y_94 >= 1
 c_1_95: y_95 >= 1
 c_1_96: y_26 + y_96 >= 1
 c_1_97: y_29 + y_97 >= 1
 c_1_98: y_44 + y_74 + y_98 >= 1
 c_1_99: y_99 >= 1
Bounds
 Constant = 1
Binaries
 y_0 y_1 y_2 y_3 y_4 y_5 y_6 y_7 y_8 y_9 y_10 y_11 y_12 y_13 y_14 y_15 y_16
 y_17 y_18 y_19 y_20 y_21 y_22 y_23 y_24 y_25 y_26 y_27 y_28 y_29 y_30 y_31
 y_32 y_33 y_34 y_35 y_36 y_37 y_38 y_39 y_40 y_41 y_42 y_43 y_44 y_45 y_46
 y_47 y_48 y_49 y_50 y_51 y_52 y_53 y_54 y_55 y_56 y_57 y_58 y_59 y_60 y_61
 y_62 y_63 y_64 y_65 y_66 y_67 y_68 y_69 y_70 y_71 y_72 y_73 y_74 y_75 y_76
 y_77 y_78 y_79 y_80 y_81 y_82 y_83 y_84 y_85 y_86 y_87 y_88 y_89 y_90 y_91
 y_92 y_93 y_94 y_95 y_96 y_97 y_98 y_99
End
